70 170866
29 14 38 34 63 26 54 59 1 68 19 46 55 13 3 56 37 21 49 15 41 2 28 22 69 9 24 43 48 64 50 66 70 35 5 60 33 32 57 4 8 27 40 47 53 30 51 17 36 58 65 12 23 18 7 16 10 11 6 67 62 44 61 52 20 39 42 31 25 45 
